\* submatrix_problem *\
Maximize
OBJ: 0.61 x_(0,_0) + 0.75 x_(0,_1) + 0.76 x_(0,_2) + 0.45 x_(0,_3)
 + 0.2 x_(0,_4) + 0.12 x_(0,_5) + 0.91 x_(0,_6) + 0.8 x_(0,_7) + 0.24 x_(0,_8)
 + 0.35 x_(0,_9) + 0.57 x_(1,_0) + 0.27 x_(1,_1) + 0.95 x_(1,_2)
 + 0.94 x_(1,_3) + 0.06 x_(1,_4) + 0.71 x_(1,_5) + 0.02 x_(1,_6)
 + 0.04 x_(1,_7) + 0.15 x_(1,_8) + 0.99 x_(1,_9) + 0.41 x_(2,_0)
 + 0.31 x_(2,_1) + 0.26 x_(2,_2) + 0.95 x_(2,_3) + 0.27 x_(2,_4)
 + 0.2 x_(2,_5) + 0.11 x_(2,_6) + 0.11 x_(2,_7) + 0.25 x_(2,_8)
 + 0.78 x_(2,_9) + 0.02 x_(3,_0) + 0.82 x_(3,_1) + 0.99 x_(3,_2)
 + 0.33 x_(3,_3) + 0.37 x_(3,_4) + 0.78 x_(3,_5) + 0.14 x_(3,_6)
 + 0.6 x_(3,_7) + 0.89 x_(3,_8) + 0.48 x_(3,_9) + 0.39 x_(4,_0)
 + 0.01 x_(4,_1) + 0.84 x_(4,_2) + 0.89 x_(4,_3) + 0.48 x_(4,_4)
 + 0.38 x_(4,_5) + 0.68 x_(4,_6) + 0.2 x_(4,_7) + 0.68 x_(4,_8)
 + 0.93 x_(4,_9) + 0.3 x_(5,_0) + 0.25 x_(5,_1) + 0.13 x_(5,_2)
 + 0.56 x_(5,_3) + 0.1 x_(5,_4) + 0.74 x_(5,_5) + 0.74 x_(5,_6)
 + 0.99 x_(5,_7) + x_(5,_8) + 0.99 x_(5,_9) + 0.89 x_(6,_0) + 0.63 x_(6,_1)
 + 0.23 x_(6,_2) + 0.31 x_(6,_3) + 0.47 x_(6,_4) + 0.55 x_(6,_5)
 + 0.84 x_(6,_6) + 0.78 x_(6,_7) + 0.34 x_(6,_8) + 0.27 x_(6,_9)
 + 0.46 x_(7,_0) + 0.9 x_(7,_1) + 0.37 x_(7,_2) + 0.17 x_(7,_3) + 0.4 x_(7,_4)
 + 0.87 x_(7,_5) + 0.93 x_(7,_6) + 0.64 x_(7,_7) + 0.69 x_(7,_8)
 + 0.93 x_(7,_9) + 0.74 x_(8,_0) + 0.18 x_(8,_1) + 0.04 x_(8,_2)
 + 0.2 x_(8,_3) + 0.63 x_(8,_4) + 0.5 x_(8,_5) + 0.24 x_(8,_6) + 0.12 x_(8,_7)
 + 0.86 x_(8,_8) + 0.17 x_(8,_9) + 0.76 x_(9,_0) + 0.42 x_(9,_1)
 + 0.46 x_(9,_2) + 0.37 x_(9,_3) + 0.06 x_(9,_4) + 0.56 x_(9,_5)
 + 0.67 x_(9,_6) + 0.75 x_(9,_7) + x_(9,_8) + 0.66 x_(9,_9)
Subject To
false_if_not_col_0_0: x_(0,_0) - y_0 <= 0
false_if_not_col_0_1: x_(0,_1) - y_1 <= 0
false_if_not_col_0_2: x_(0,_2) - y_2 <= 0
false_if_not_col_0_3: x_(0,_3) - y_3 <= 0
false_if_not_col_0_4: x_(0,_4) - y_4 <= 0
false_if_not_col_0_5: x_(0,_5) - y_5 <= 0
false_if_not_col_0_6: x_(0,_6) - y_6 <= 0
false_if_not_col_0_7: x_(0,_7) - y_7 <= 0
false_if_not_col_0_8: x_(0,_8) - y_8 <= 0
false_if_not_col_0_9: x_(0,_9) - y_9 <= 0
false_if_not_col_1_0: x_(1,_0) - y_0 <= 0
false_if_not_col_1_1: x_(1,_1) - y_1 <= 0
false_if_not_col_1_2: x_(1,_2) - y_2 <= 0
false_if_not_col_1_3: x_(1,_3) - y_3 <= 0
false_if_not_col_1_4: x_(1,_4) - y_4 <= 0
false_if_not_col_1_5: x_(1,_5) - y_5 <= 0
false_if_not_col_1_6: x_(1,_6) - y_6 <= 0
false_if_not_col_1_7: x_(1,_7) - y_7 <= 0
false_if_not_col_1_8: x_(1,_8) - y_8 <= 0
false_if_not_col_1_9: x_(1,_9) - y_9 <= 0
false_if_not_col_2_0: x_(2,_0) - y_0 <= 0
false_if_not_col_2_1: x_(2,_1) - y_1 <= 0
false_if_not_col_2_2: x_(2,_2) - y_2 <= 0
false_if_not_col_2_3: x_(2,_3) - y_3 <= 0
false_if_not_col_2_4: x_(2,_4) - y_4 <= 0
false_if_not_col_2_5: x_(2,_5) - y_5 <= 0
false_if_not_col_2_6: x_(2,_6) - y_6 <= 0
false_if_not_col_2_7: x_(2,_7) - y_7 <= 0
false_if_not_col_2_8: x_(2,_8) - y_8 <= 0
false_if_not_col_2_9: x_(2,_9) - y_9 <= 0
false_if_not_col_3_0: x_(3,_0) - y_0 <= 0
false_if_not_col_3_1: x_(3,_1) - y_1 <= 0
false_if_not_col_3_2: x_(3,_2) - y_2 <= 0
false_if_not_col_3_3: x_(3,_3) - y_3 <= 0
false_if_not_col_3_4: x_(3,_4) - y_4 <= 0
false_if_not_col_3_5: x_(3,_5) - y_5 <= 0
false_if_not_col_3_6: x_(3,_6) - y_6 <= 0
false_if_not_col_3_7: x_(3,_7) - y_7 <= 0
false_if_not_col_3_8: x_(3,_8) - y_8 <= 0
false_if_not_col_3_9: x_(3,_9) - y_9 <= 0
false_if_not_col_4_0: x_(4,_0) - y_0 <= 0
false_if_not_col_4_1: x_(4,_1) - y_1 <= 0
false_if_not_col_4_2: x_(4,_2) - y_2 <= 0
false_if_not_col_4_3: x_(4,_3) - y_3 <= 0
false_if_not_col_4_4: x_(4,_4) - y_4 <= 0
false_if_not_col_4_5: x_(4,_5) - y_5 <= 0
false_if_not_col_4_6: x_(4,_6) - y_6 <= 0
false_if_not_col_4_7: x_(4,_7) - y_7 <= 0
false_if_not_col_4_8: x_(4,_8) - y_8 <= 0
false_if_not_col_4_9: x_(4,_9) - y_9 <= 0
false_if_not_col_5_0: x_(5,_0) - y_0 <= 0
false_if_not_col_5_1: x_(5,_1) - y_1 <= 0
false_if_not_col_5_2: x_(5,_2) - y_2 <= 0
false_if_not_col_5_3: x_(5,_3) - y_3 <= 0
false_if_not_col_5_4: x_(5,_4) - y_4 <= 0
false_if_not_col_5_5: x_(5,_5) - y_5 <= 0
false_if_not_col_5_6: x_(5,_6) - y_6 <= 0
false_if_not_col_5_7: x_(5,_7) - y_7 <= 0
false_if_not_col_5_8: x_(5,_8) - y_8 <= 0
false_if_not_col_5_9: x_(5,_9) - y_9 <= 0
false_if_not_col_6_0: x_(6,_0) - y_0 <= 0
false_if_not_col_6_1: x_(6,_1) - y_1 <= 0
false_if_not_col_6_2: x_(6,_2) - y_2 <= 0
false_if_not_col_6_3: x_(6,_3) - y_3 <= 0
false_if_not_col_6_4: x_(6,_4) - y_4 <= 0
false_if_not_col_6_5: x_(6,_5) - y_5 <= 0
false_if_not_col_6_6: x_(6,_6) - y_6 <= 0
false_if_not_col_6_7: x_(6,_7) - y_7 <= 0
false_if_not_col_6_8: x_(6,_8) - y_8 <= 0
false_if_not_col_6_9: x_(6,_9) - y_9 <= 0
false_if_not_col_7_0: x_(7,_0) - y_0 <= 0
false_if_not_col_7_1: x_(7,_1) - y_1 <= 0
false_if_not_col_7_2: x_(7,_2) - y_2 <= 0
false_if_not_col_7_3: x_(7,_3) - y_3 <= 0
false_if_not_col_7_4: x_(7,_4) - y_4 <= 0
false_if_not_col_7_5: x_(7,_5) - y_5 <= 0
false_if_not_col_7_6: x_(7,_6) - y_6 <= 0
false_if_not_col_7_7: x_(7,_7) - y_7 <= 0
false_if_not_col_7_8: x_(7,_8) - y_8 <= 0
false_if_not_col_7_9: x_(7,_9) - y_9 <= 0
false_if_not_col_8_0: x_(8,_0) - y_0 <= 0
false_if_not_col_8_1: x_(8,_1) - y_1 <= 0
false_if_not_col_8_2: x_(8,_2) - y_2 <= 0
false_if_not_col_8_3: x_(8,_3) - y_3 <= 0
false_if_not_col_8_4: x_(8,_4) - y_4 <= 0
false_if_not_col_8_5: x_(8,_5) - y_5 <= 0
false_if_not_col_8_6: x_(8,_6) - y_6 <= 0
false_if_not_col_8_7: x_(8,_7) - y_7 <= 0
false_if_not_col_8_8: x_(8,_8) - y_8 <= 0
false_if_not_col_8_9: x_(8,_9) - y_9 <= 0
false_if_not_col_9_0: x_(9,_0) - y_0 <= 0
false_if_not_col_9_1: x_(9,_1) - y_1 <= 0
false_if_not_col_9_2: x_(9,_2) - y_2 <= 0
false_if_not_col_9_3: x_(9,_3) - y_3 <= 0
false_if_not_col_9_4: x_(9,_4) - y_4 <= 0
false_if_not_col_9_5: x_(9,_5) - y_5 <= 0
false_if_not_col_9_6: x_(9,_6) - y_6 <= 0
false_if_not_col_9_7: x_(9,_7) - y_7 <= 0
false_if_not_col_9_8: x_(9,_8) - y_8 <= 0
false_if_not_col_9_9: x_(9,_9) - y_9 <= 0
false_if_not_row_0_0: x_(0,_0) - y_0 <= 0
false_if_not_row_0_1: x_(0,_1) - y_0 <= 0
false_if_not_row_0_2: x_(0,_2) - y_0 <= 0
false_if_not_row_0_3: x_(0,_3) - y_0 <= 0
false_if_not_row_0_4: x_(0,_4) - y_0 <= 0
false_if_not_row_0_5: x_(0,_5) - y_0 <= 0
false_if_not_row_0_6: x_(0,_6) - y_0 <= 0
false_if_not_row_0_7: x_(0,_7) - y_0 <= 0
false_if_not_row_0_8: x_(0,_8) - y_0 <= 0
false_if_not_row_0_9: x_(0,_9) - y_0 <= 0
false_if_not_row_1_0: x_(1,_0) - y_1 <= 0
false_if_not_row_1_1: x_(1,_1) - y_1 <= 0
false_if_not_row_1_2: x_(1,_2) - y_1 <= 0
false_if_not_row_1_3: x_(1,_3) - y_1 <= 0
false_if_not_row_1_4: x_(1,_4) - y_1 <= 0
false_if_not_row_1_5: x_(1,_5) - y_1 <= 0
false_if_not_row_1_6: x_(1,_6) - y_1 <= 0
false_if_not_row_1_7: x_(1,_7) - y_1 <= 0
false_if_not_row_1_8: x_(1,_8) - y_1 <= 0
false_if_not_row_1_9: x_(1,_9) - y_1 <= 0
false_if_not_row_2_0: x_(2,_0) - y_2 <= 0
false_if_not_row_2_1: x_(2,_1) - y_2 <= 0
false_if_not_row_2_2: x_(2,_2) - y_2 <= 0
false_if_not_row_2_3: x_(2,_3) - y_2 <= 0
false_if_not_row_2_4: x_(2,_4) - y_2 <= 0
false_if_not_row_2_5: x_(2,_5) - y_2 <= 0
false_if_not_row_2_6: x_(2,_6) - y_2 <= 0
false_if_not_row_2_7: x_(2,_7) - y_2 <= 0
false_if_not_row_2_8: x_(2,_8) - y_2 <= 0
false_if_not_row_2_9: x_(2,_9) - y_2 <= 0
false_if_not_row_3_0: x_(3,_0) - y_3 <= 0
false_if_not_row_3_1: x_(3,_1) - y_3 <= 0
false_if_not_row_3_2: x_(3,_2) - y_3 <= 0
false_if_not_row_3_3: x_(3,_3) - y_3 <= 0
false_if_not_row_3_4: x_(3,_4) - y_3 <= 0
false_if_not_row_3_5: x_(3,_5) - y_3 <= 0
false_if_not_row_3_6: x_(3,_6) - y_3 <= 0
false_if_not_row_3_7: x_(3,_7) - y_3 <= 0
false_if_not_row_3_8: x_(3,_8) - y_3 <= 0
false_if_not_row_3_9: x_(3,_9) - y_3 <= 0
false_if_not_row_4_0: x_(4,_0) - y_4 <= 0
false_if_not_row_4_1: x_(4,_1) - y_4 <= 0
false_if_not_row_4_2: x_(4,_2) - y_4 <= 0
false_if_not_row_4_3: x_(4,_3) - y_4 <= 0
false_if_not_row_4_4: x_(4,_4) - y_4 <= 0
false_if_not_row_4_5: x_(4,_5) - y_4 <= 0
false_if_not_row_4_6: x_(4,_6) - y_4 <= 0
false_if_not_row_4_7: x_(4,_7) - y_4 <= 0
false_if_not_row_4_8: x_(4,_8) - y_4 <= 0
false_if_not_row_4_9: x_(4,_9) - y_4 <= 0
false_if_not_row_5_0: x_(5,_0) - y_5 <= 0
false_if_not_row_5_1: x_(5,_1) - y_5 <= 0
false_if_not_row_5_2: x_(5,_2) - y_5 <= 0
false_if_not_row_5_3: x_(5,_3) - y_5 <= 0
false_if_not_row_5_4: x_(5,_4) - y_5 <= 0
false_if_not_row_5_5: x_(5,_5) - y_5 <= 0
false_if_not_row_5_6: x_(5,_6) - y_5 <= 0
false_if_not_row_5_7: x_(5,_7) - y_5 <= 0
false_if_not_row_5_8: x_(5,_8) - y_5 <= 0
false_if_not_row_5_9: x_(5,_9) - y_5 <= 0
false_if_not_row_6_0: x_(6,_0) - y_6 <= 0
false_if_not_row_6_1: x_(6,_1) - y_6 <= 0
false_if_not_row_6_2: x_(6,_2) - y_6 <= 0
false_if_not_row_6_3: x_(6,_3) - y_6 <= 0
false_if_not_row_6_4: x_(6,_4) - y_6 <= 0
false_if_not_row_6_5: x_(6,_5) - y_6 <= 0
false_if_not_row_6_6: x_(6,_6) - y_6 <= 0
false_if_not_row_6_7: x_(6,_7) - y_6 <= 0
false_if_not_row_6_8: x_(6,_8) - y_6 <= 0
false_if_not_row_6_9: x_(6,_9) - y_6 <= 0
false_if_not_row_7_0: x_(7,_0) - y_7 <= 0
false_if_not_row_7_1: x_(7,_1) - y_7 <= 0
false_if_not_row_7_2: x_(7,_2) - y_7 <= 0
false_if_not_row_7_3: x_(7,_3) - y_7 <= 0
false_if_not_row_7_4: x_(7,_4) - y_7 <= 0
false_if_not_row_7_5: x_(7,_5) - y_7 <= 0
false_if_not_row_7_6: x_(7,_6) - y_7 <= 0
false_if_not_row_7_7: x_(7,_7) - y_7 <= 0
false_if_not_row_7_8: x_(7,_8) - y_7 <= 0
false_if_not_row_7_9: x_(7,_9) - y_7 <= 0
false_if_not_row_8_0: x_(8,_0) - y_8 <= 0
false_if_not_row_8_1: x_(8,_1) - y_8 <= 0
false_if_not_row_8_2: x_(8,_2) - y_8 <= 0
false_if_not_row_8_3: x_(8,_3) - y_8 <= 0
false_if_not_row_8_4: x_(8,_4) - y_8 <= 0
false_if_not_row_8_5: x_(8,_5) - y_8 <= 0
false_if_not_row_8_6: x_(8,_6) - y_8 <= 0
false_if_not_row_8_7: x_(8,_7) - y_8 <= 0
false_if_not_row_8_8: x_(8,_8) - y_8 <= 0
false_if_not_row_8_9: x_(8,_9) - y_8 <= 0
false_if_not_row_9_0: x_(9,_0) - y_9 <= 0
false_if_not_row_9_1: x_(9,_1) - y_9 <= 0
false_if_not_row_9_2: x_(9,_2) - y_9 <= 0
false_if_not_row_9_3: x_(9,_3) - y_9 <= 0
false_if_not_row_9_4: x_(9,_4) - y_9 <= 0
false_if_not_row_9_5: x_(9,_5) - y_9 <= 0
false_if_not_row_9_6: x_(9,_6) - y_9 <= 0
false_if_not_row_9_7: x_(9,_7) - y_9 <= 0
false_if_not_row_9_8: x_(9,_8) - y_9 <= 0
false_if_not_row_9_9: x_(9,_9) - y_9 <= 0
submatrix_size: y_0 + y_1 + y_2 + y_3 + y_4 + y_5 + y_6 + y_7 + y_8 + y_9 = 6
true_if_both_0_0: x_(0,_0) - 2 y_0 >= -1
true_if_both_0_1: x_(0,_1) - y_0 - y_1 >= -1
true_if_both_0_2: x_(0,_2) - y_0 - y_2 >= -1
true_if_both_0_3: x_(0,_3) - y_0 - y_3 >= -1
true_if_both_0_4: x_(0,_4) - y_0 - y_4 >= -1
true_if_both_0_5: x_(0,_5) - y_0 - y_5 >= -1
true_if_both_0_6: x_(0,_6) - y_0 - y_6 >= -1
true_if_both_0_7: x_(0,_7) - y_0 - y_7 >= -1
true_if_both_0_8: x_(0,_8) - y_0 - y_8 >= -1
true_if_both_0_9: x_(0,_9) - y_0 - y_9 >= -1
true_if_both_1_0: x_(1,_0) - y_0 - y_1 >= -1
true_if_both_1_1: x_(1,_1) - 2 y_1 >= -1
true_if_both_1_2: x_(1,_2) - y_1 - y_2 >= -1
true_if_both_1_3: x_(1,_3) - y_1 - y_3 >= -1
true_if_both_1_4: x_(1,_4) - y_1 - y_4 >= -1
true_if_both_1_5: x_(1,_5) - y_1 - y_5 >= -1
true_if_both_1_6: x_(1,_6) - y_1 - y_6 >= -1
true_if_both_1_7: x_(1,_7) - y_1 - y_7 >= -1
true_if_both_1_8: x_(1,_8) - y_1 - y_8 >= -1
true_if_both_1_9: x_(1,_9) - y_1 - y_9 >= -1
true_if_both_2_0: x_(2,_0) - y_0 - y_2 >= -1
true_if_both_2_1: x_(2,_1) - y_1 - y_2 >= -1
true_if_both_2_2: x_(2,_2) - 2 y_2 >= -1
true_if_both_2_3: x_(2,_3) - y_2 - y_3 >= -1
true_if_both_2_4: x_(2,_4) - y_2 - y_4 >= -1
true_if_both_2_5: x_(2,_5) - y_2 - y_5 >= -1
true_if_both_2_6: x_(2,_6) - y_2 - y_6 >= -1
true_if_both_2_7: x_(2,_7) - y_2 - y_7 >= -1
true_if_both_2_8: x_(2,_8) - y_2 - y_8 >= -1
true_if_both_2_9: x_(2,_9) - y_2 - y_9 >= -1
true_if_both_3_0: x_(3,_0) - y_0 - y_3 >= -1
true_if_both_3_1: x_(3,_1) - y_1 - y_3 >= -1
true_if_both_3_2: x_(3,_2) - y_2 - y_3 >= -1
true_if_both_3_3: x_(3,_3) - 2 y_3 >= -1
true_if_both_3_4: x_(3,_4) - y_3 - y_4 >= -1
true_if_both_3_5: x_(3,_5) - y_3 - y_5 >= -1
true_if_both_3_6: x_(3,_6) - y_3 - y_6 >= -1
true_if_both_3_7: x_(3,_7) - y_3 - y_7 >= -1
true_if_both_3_8: x_(3,_8) - y_3 - y_8 >= -1
true_if_both_3_9: x_(3,_9) - y_3 - y_9 >= -1
true_if_both_4_0: x_(4,_0) - y_0 - y_4 >= -1
true_if_both_4_1: x_(4,_1) - y_1 - y_4 >= -1
true_if_both_4_2: x_(4,_2) - y_2 - y_4 >= -1
true_if_both_4_3: x_(4,_3) - y_3 - y_4 >= -1
true_if_both_4_4: x_(4,_4) - 2 y_4 >= -1
true_if_both_4_5: x_(4,_5) - y_4 - y_5 >= -1
true_if_both_4_6: x_(4,_6) - y_4 - y_6 >= -1
true_if_both_4_7: x_(4,_7) - y_4 - y_7 >= -1
true_if_both_4_8: x_(4,_8) - y_4 - y_8 >= -1
true_if_both_4_9: x_(4,_9) - y_4 - y_9 >= -1
true_if_both_5_0: x_(5,_0) - y_0 - y_5 >= -1
true_if_both_5_1: x_(5,_1) - y_1 - y_5 >= -1
true_if_both_5_2: x_(5,_2) - y_2 - y_5 >= -1
true_if_both_5_3: x_(5,_3) - y_3 - y_5 >= -1
true_if_both_5_4: x_(5,_4) - y_4 - y_5 >= -1
true_if_both_5_5: x_(5,_5) - 2 y_5 >= -1
true_if_both_5_6: x_(5,_6) - y_5 - y_6 >= -1
true_if_both_5_7: x_(5,_7) - y_5 - y_7 >= -1
true_if_both_5_8: x_(5,_8) - y_5 - y_8 >= -1
true_if_both_5_9: x_(5,_9) - y_5 - y_9 >= -1
true_if_both_6_0: x_(6,_0) - y_0 - y_6 >= -1
true_if_both_6_1: x_(6,_1) - y_1 - y_6 >= -1
true_if_both_6_2: x_(6,_2) - y_2 - y_6 >= -1
true_if_both_6_3: x_(6,_3) - y_3 - y_6 >= -1
true_if_both_6_4: x_(6,_4) - y_4 - y_6 >= -1
true_if_both_6_5: x_(6,_5) - y_5 - y_6 >= -1
true_if_both_6_6: x_(6,_6) - 2 y_6 >= -1
true_if_both_6_7: x_(6,_7) - y_6 - y_7 >= -1
true_if_both_6_8: x_(6,_8) - y_6 - y_8 >= -1
true_if_both_6_9: x_(6,_9) - y_6 - y_9 >= -1
true_if_both_7_0: x_(7,_0) - y_0 - y_7 >= -1
true_if_both_7_1: x_(7,_1) - y_1 - y_7 >= -1
true_if_both_7_2: x_(7,_2) - y_2 - y_7 >= -1
true_if_both_7_3: x_(7,_3) - y_3 - y_7 >= -1
true_if_both_7_4: x_(7,_4) - y_4 - y_7 >= -1
true_if_both_7_5: x_(7,_5) - y_5 - y_7 >= -1
true_if_both_7_6: x_(7,_6) - y_6 - y_7 >= -1
true_if_both_7_7: x_(7,_7) - 2 y_7 >= -1
true_if_both_7_8: x_(7,_8) - y_7 - y_8 >= -1
true_if_both_7_9: x_(7,_9) - y_7 - y_9 >= -1
true_if_both_8_0: x_(8,_0) - y_0 - y_8 >= -1
true_if_both_8_1: x_(8,_1) - y_1 - y_8 >= -1
true_if_both_8_2: x_(8,_2) - y_2 - y_8 >= -1
true_if_both_8_3: x_(8,_3) - y_3 - y_8 >= -1
true_if_both_8_4: x_(8,_4) - y_4 - y_8 >= -1
true_if_both_8_5: x_(8,_5) - y_5 - y_8 >= -1
true_if_both_8_6: x_(8,_6) - y_6 - y_8 >= -1
true_if_both_8_7: x_(8,_7) - y_7 - y_8 >= -1
true_if_both_8_8: x_(8,_8) - 2 y_8 >= -1
true_if_both_8_9: x_(8,_9) - y_8 - y_9 >= -1
true_if_both_9_0: x_(9,_0) - y_0 - y_9 >= -1
true_if_both_9_1: x_(9,_1) - y_1 - y_9 >= -1
true_if_both_9_2: x_(9,_2) - y_2 - y_9 >= -1
true_if_both_9_3: x_(9,_3) - y_3 - y_9 >= -1
true_if_both_9_4: x_(9,_4) - y_4 - y_9 >= -1
true_if_both_9_5: x_(9,_5) - y_5 - y_9 >= -1
true_if_both_9_6: x_(9,_6) - y_6 - y_9 >= -1
true_if_both_9_7: x_(9,_7) - y_7 - y_9 >= -1
true_if_both_9_8: x_(9,_8) - y_8 - y_9 >= -1
true_if_both_9_9: x_(9,_9) - 2 y_9 >= -1
Bounds
x_(0,_0) <= 1
x_(0,_1) <= 1
x_(0,_2) <= 1
x_(0,_3) <= 1
x_(0,_4) <= 1
x_(0,_5) <= 1
x_(0,_6) <= 1
x_(0,_7) <= 1
x_(0,_8) <= 1
x_(0,_9) <= 1
x_(1,_0) <= 1
x_(1,_1) <= 1
x_(1,_2) <= 1
x_(1,_3) <= 1
x_(1,_4) <= 1
x_(1,_5) <= 1
x_(1,_6) <= 1
x_(1,_7) <= 1
x_(1,_8) <= 1
x_(1,_9) <= 1
x_(2,_0) <= 1
x_(2,_1) <= 1
x_(2,_2) <= 1
x_(2,_3) <= 1
x_(2,_4) <= 1
x_(2,_5) <= 1
x_(2,_6) <= 1
x_(2,_7) <= 1
x_(2,_8) <= 1
x_(2,_9) <= 1
x_(3,_0) <= 1
x_(3,_1) <= 1
x_(3,_2) <= 1
x_(3,_3) <= 1
x_(3,_4) <= 1
x_(3,_5) <= 1
x_(3,_6) <= 1
x_(3,_7) <= 1
x_(3,_8) <= 1
x_(3,_9) <= 1
x_(4,_0) <= 1
x_(4,_1) <= 1
x_(4,_2) <= 1
x_(4,_3) <= 1
x_(4,_4) <= 1
x_(4,_5) <= 1
x_(4,_6) <= 1
x_(4,_7) <= 1
x_(4,_8) <= 1
x_(4,_9) <= 1
x_(5,_0) <= 1
x_(5,_1) <= 1
x_(5,_2) <= 1
x_(5,_3) <= 1
x_(5,_4) <= 1
x_(5,_5) <= 1
x_(5,_6) <= 1
x_(5,_7) <= 1
x_(5,_8) <= 1
x_(5,_9) <= 1
x_(6,_0) <= 1
x_(6,_1) <= 1
x_(6,_2) <= 1
x_(6,_3) <= 1
x_(6,_4) <= 1
x_(6,_5) <= 1
x_(6,_6) <= 1
x_(6,_7) <= 1
x_(6,_8) <= 1
x_(6,_9) <= 1
x_(7,_0) <= 1
x_(7,_1) <= 1
x_(7,_2) <= 1
x_(7,_3) <= 1
x_(7,_4) <= 1
x_(7,_5) <= 1
x_(7,_6) <= 1
x_(7,_7) <= 1
x_(7,_8) <= 1
x_(7,_9) <= 1
x_(8,_0) <= 1
x_(8,_1) <= 1
x_(8,_2) <= 1
x_(8,_3) <= 1
x_(8,_4) <= 1
x_(8,_5) <= 1
x_(8,_6) <= 1
x_(8,_7) <= 1
x_(8,_8) <= 1
x_(8,_9) <= 1
x_(9,_0) <= 1
x_(9,_1) <= 1
x_(9,_2) <= 1
x_(9,_3) <= 1
x_(9,_4) <= 1
x_(9,_5) <= 1
x_(9,_6) <= 1
x_(9,_7) <= 1
x_(9,_8) <= 1
x_(9,_9) <= 1
Binaries
y_0
y_1
y_2
y_3
y_4
y_5
y_6
y_7
y_8
y_9
End
